p cnf 4593 961
-4204 4391 0
-4391 4204 0
-4393 -4394 0
-4206 4393 0
-4207 4394 0
-4393 4206 0
-4394 4207 0
-4396 -4397 0
-4209 4396 0
-4210 4397 0
-4396 4209 0
-4397 4210 0
-4399 -4400 0
-4399 -4401 0
-4400 -4401 0
-4212 4399 0
-4213 4400 0
-4214 4401 0
-4399 4212 0
-4400 4213 0
-4401 4214 0
-4403 -4404 0
-4216 4403 0
-4217 4404 0
-4403 4216 0
-4404 4217 0
-4406 -4407 0
-4406 -4408 0
-4407 -4408 0
-4219 4406 0
-4220 4407 0
-4221 4408 0
-4406 4219 0
-4407 4220 0
-4408 4221 0
-4410 -4411 0
-4223 4410 0
-4224 4411 0
-4410 4223 0
-4411 4224 0
-4413 -4414 0
-4413 -4415 0
-4414 -4415 0
-4226 4413 0
-4227 4414 0
-4228 4415 0
-4413 4226 0
-4414 4227 0
-4415 4228 0
-4417 -4418 0
-4230 4417 0
-4231 4418 0
-4417 4230 0
-4418 4231 0
-4420 -4421 0
-4420 -4422 0
-4421 -4422 0
-4233 4420 0
-4234 4421 0
-4235 4422 0
-4420 4233 0
-4421 4234 0
-4422 4235 0
-4424 -4425 0
-4237 4424 0
-4238 4425 0
-4424 4237 0
-4425 4238 0
-4427 -4428 0
-4427 -4429 0
-4428 -4429 0
-4240 4427 0
-4241 4428 0
-4242 4429 0
-4427 4240 0
-4428 4241 0
-4429 4242 0
-4431 -4432 0
-4244 4431 0
-4245 4432 0
-4431 4244 0
-4432 4245 0
-4434 -4435 0
-4434 -4436 0
-4435 -4436 0
-4247 4434 0
-4248 4435 0
-4249 4436 0
-4434 4247 0
-4435 4248 0
-4436 4249 0
-4438 -4439 0
-4251 4438 0
-4252 4439 0
-4438 4251 0
-4439 4252 0
-4441 -4442 0
-4441 -4443 0
-4442 -4443 0
-4254 4441 0
-4255 4442 0
-4256 4443 0
-4441 4254 0
-4442 4255 0
-4443 4256 0
-4445 -4446 0
-4258 4445 0
-4259 4446 0
-4445 4258 0
-4446 4259 0
-4448 -4449 0
-4448 -4450 0
-4449 -4450 0
-4261 4448 0
-4262 4449 0
-4263 4450 0
-4448 4261 0
-4449 4262 0
-4450 4263 0
-4452 -4453 0
-4265 4452 0
-4266 4453 0
-4452 4265 0
-4453 4266 0
-4455 -4456 0
-4455 -4457 0
-4456 -4457 0
-4268 4455 0
-4269 4456 0
-4270 4457 0
-4455 4268 0
-4456 4269 0
-4457 4270 0
-4459 -4460 0
-4272 4459 0
-4273 4460 0
-4459 4272 0
-4460 4273 0
-4462 -4463 0
-4462 -4464 0
-4463 -4464 0
-4275 4462 0
-4276 4463 0
-4277 4464 0
-4462 4275 0
-4463 4276 0
-4464 4277 0
-4466 -4467 0
-4279 4466 0
-4280 4467 0
-4466 4279 0
-4467 4280 0
-4469 -4470 0
-4469 -4471 0
-4470 -4471 0
-4282 4469 0
-4283 4470 0
-4284 4471 0
-4469 4282 0
-4470 4283 0
-4471 4284 0
-4473 -4474 0
-4286 4473 0
-4287 4474 0
-4473 4286 0
-4474 4287 0
-4476 -4477 0
-4476 -4478 0
-4477 -4478 0
-4289 4476 0
-4290 4477 0
-4291 4478 0
-4476 4289 0
-4477 4290 0
-4478 4291 0
-4480 -4481 0
-4293 4480 0
-4294 4481 0
-4480 4293 0
-4481 4294 0
-4483 -4484 0
-4483 -4485 0
-4484 -4485 0
-4296 4483 0
-4297 4484 0
-4298 4485 0
-4483 4296 0
-4484 4297 0
-4485 4298 0
-4487 -4488 0
-4300 4487 0
-4301 4488 0
-4487 4300 0
-4488 4301 0
-4490 -4491 0
-4490 -4492 0
-4491 -4492 0
-4303 4491 0
-4304 4492 0
-4305 4490 0
-4306 4490 0
-4490 4305 4306 0
-4491 4303 0
-4492 4304 0
-4495 4500 4501 4502 4503 4504 0
-4500 -4501 0
-4500 -4502 0
-4500 -4503 0
-4500 -4504 0
-4501 -4502 0
-4501 -4503 0
-4501 -4504 0
-4502 -4503 0
-4502 -4504 0
-4503 -4504 0
-4495 4505 4506 4507 4508 4509 4510 4511 0
-4505 -4506 0
-4505 -4507 0
-4505 -4508 0
-4505 -4509 0
-4505 -4510 0
-4505 -4511 0
-4506 -4507 0
-4506 -4508 0
-4506 -4509 0
-4506 -4510 0
-4506 -4511 0
-4507 -4508 0
-4507 -4509 0
-4507 -4510 0
-4507 -4511 0
-4508 -4509 0
-4508 -4510 0
-4508 -4511 0
-4509 -4510 0
-4509 -4511 0
-4510 -4511 0
-4495 4512 4513 4514 4515 4516 4517 4518 4519 0
-4512 -4513 0
-4512 -4514 0
-4512 -4515 0
-4512 -4516 0
-4512 -4517 0
-4512 -4518 0
-4512 -4519 0
-4513 -4514 0
-4513 -4515 0
-4513 -4516 0
-4513 -4517 0
-4513 -4518 0
-4513 -4519 0
-4514 -4515 0
-4514 -4516 0
-4514 -4517 0
-4514 -4518 0
-4514 -4519 0
-4515 -4516 0
-4515 -4517 0
-4515 -4518 0
-4515 -4519 0
-4516 -4517 0
-4516 -4518 0
-4516 -4519 0
-4517 -4518 0
-4517 -4519 0
-4518 -4519 0
-4495 4498 0
-4495 4499 0
-4495 4497 0
-4494 -4495 0
-4500 -4497 4157 0
-4504 -4497 4134 0
-4501 -4497 4135 0
-4502 -4497 4150 0
-4503 -4497 4165 0
-4503 -4505 -4498 4351 0
-4503 -4510 -4498 4358 0
-4503 -4506 -4498 4336 0
-4501 -4509 -4498 4337 0
-4503 -4511 -4498 4339 0
-4500 -4506 -4498 4340 0
-4502 -4506 -4498 4354 0
-4504 -4509 -4498 4369 0
-4502 -4511 -4498 4341 0
-4503 -4508 -4498 4343 0
-4502 -4509 -4498 4362 0
-4500 -4509 -4498 4355 0
-4504 -4510 -4498 4345 0
-4504 -4506 -4498 4370 0
-4500 -4510 -4498 4371 0
-4503 -4507 -4498 4364 0
-4501 -4506 -4498 4365 0
-4504 -4505 -4498 4348 0
-4504 -4507 -4498 4366 0
-4501 -4511 -4498 4357 0
-4504 -4511 -4498 4350 0
-4503 -4509 -4498 4367 0
-4500 -4511 -4498 4374 0
-4501 -4507 -4498 4375 0
-4500 -4507 -4498 4376 0
-4513 -4499 4352 0
-4518 -4499 4344 0
-4519 -4499 4359 0
-4514 -4499 4338 0
-4517 -4499 4363 0
-4515 -4499 4347 0
-4516 -4499 4356 0
-4512 -4499 4373 0
-4495 -4501 -4512 0
-4495 -4501 -4518 0
-4495 -4501 -4515 0
-4495 -4501 -4517 0
-4495 -4504 -4518 0
-4495 -4504 -4515 0
-4495 -4503 -4518 0
-4495 -4502 -4514 0
-4495 -4502 -4512 0
-4495 -4502 -4518 0
-4495 -4502 -4515 0
-4495 -4502 -4517 0
-4495 -4500 -4512 0
-4495 -4500 -4518 0
-4495 -4500 -4515 0
-4495 -4501 -4508 0
-4495 -4501 -4510 0
-4495 -4501 -4505 0
-4495 -4504 -4508 0
-4495 -4502 -4508 0
-4495 -4502 -4507 0
-4495 -4502 -4510 0
-4495 -4502 -4505 0
-4495 -4500 -4508 0
-4495 -4500 -4505 0
-4334 4495 0
-4333 4494 0
-4494 4333 0
-4495 4334 0
-4520 4524 0
-4523 4524 0
-4521 -4524 0
-4522 -4524 0
-4134 4525 -4495 4504 0
-4134 4525 4495 0
4134 -4525 -4495 4508 0
4134 -4525 4495 0
-4135 4526 -4495 4501 0
-4135 4526 4495 0
4135 -4526 -4495 4510 0
4135 -4526 4495 0
-4336 4527 -4495 -4503 4506 0
-4336 4527 -4495 4503 0
-4336 4527 4495 0
4336 -4527 -4495 -4503 4513 0
4336 -4527 -4495 4503 0
4336 -4527 4495 0
-4337 4528 -4495 -4501 4509 0
-4337 4528 -4495 4501 0
-4337 4528 4495 0
4337 -4528 -4495 -4501 4516 0
4337 -4528 -4495 4501 0
4337 -4528 4495 0
-4338 4529 -4495 4514 0
-4338 4529 4495 0
4338 -4529 -4495 4502 0
4338 -4529 4495 0
-4339 4530 -4495 -4503 4511 0
-4339 4530 -4495 4503 0
-4339 4530 4495 0
4339 -4530 -4495 -4503 4519 0
4339 -4530 -4495 4503 0
4339 -4530 4495 0
-4340 4531 -4495 -4500 4506 0
-4340 4531 -4495 4500 0
-4340 4531 4495 0
4340 -4531 -4495 -4500 4513 0
4340 -4531 -4495 4500 0
4340 -4531 4495 0
-4140 4532 0
4140 -4532 -4495 4511 0
4140 -4532 4495 0
-4341 4533 -4495 -4502 4511 0
-4341 4533 -4495 4502 0
-4341 4533 4495 0
4341 -4533 -4495 -4502 4519 0
4341 -4533 -4495 4502 0
4341 -4533 4495 0
-4343 4534 -4495 -4503 4508 0
-4343 4534 -4495 4503 0
-4343 4534 4495 0
4343 -4534 -4495 -4503 4515 0
4343 -4534 -4495 4503 0
4343 -4534 4495 0
-4344 4535 -4495 4518 0
-4344 4535 4495 0
4344 -4535 -4495 4503 0
4344 -4535 4495 0
-4345 4536 -4495 -4504 4510 0
-4345 4536 -4495 4504 0
-4345 4536 4495 0
4345 -4536 -4495 -4504 4517 0
4345 -4536 -4495 4504 0
4345 -4536 4495 0
-4347 4537 -4495 4515 0
-4347 4537 4495 0
4347 -4537 -4495 4504 0
4347 -4537 4495 0
-4348 4538 -4495 -4504 4505 0
-4348 4538 -4495 4504 0
-4348 4538 4495 0
4348 -4538 -4495 -4504 4512 0
4348 -4538 -4495 4504 0
4348 -4538 4495 0
-4350 4539 -4495 -4504 4511 0
-4350 4539 -4495 4504 0
-4350 4539 4495 0
4350 -4539 -4495 -4504 4519 0
4350 -4539 -4495 4504 0
4350 -4539 4495 0
-4351 4540 -4495 -4503 4505 0
-4351 4540 -4495 4503 0
-4351 4540 4495 0
4351 -4540 -4495 -4503 4512 0
4351 -4540 -4495 4503 0
4351 -4540 4495 0
-4352 4541 -4495 4513 0
-4352 4541 4495 0
4352 -4541 0
-4150 4542 -4495 4502 0
-4150 4542 4495 0
4150 -4542 -4495 4507 0
4150 -4542 4495 0
-4354 4543 -4495 -4502 4506 0
-4354 4543 -4495 4502 0
-4354 4543 4495 0
4354 -4543 -4495 -4502 4513 0
4354 -4543 -4495 4502 0
4354 -4543 4495 0
-4355 4544 -4495 -4500 4509 0
-4355 4544 -4495 4500 0
-4355 4544 4495 0
4355 -4544 -4495 -4500 4516 0
4355 -4544 -4495 4500 0
4355 -4544 4495 0
-4154 4545 0
4154 -4545 -4495 4506 0
4154 -4545 4495 0
-4356 4546 -4495 4516 0
-4356 4546 4495 0
4356 -4546 0
-4357 4547 -4495 -4501 4511 0
-4357 4547 -4495 4501 0
-4357 4547 4495 0
4357 -4547 -4495 -4501 4519 0
4357 -4547 -4495 4501 0
4357 -4547 4495 0
-4358 4548 -4495 -4503 4510 0
-4358 4548 -4495 4503 0
-4358 4548 4495 0
4358 -4548 -4495 -4503 4517 0
4358 -4548 -4495 4503 0
4358 -4548 4495 0
-4359 4549 -4495 4519 0
-4359 4549 4495 0
4359 -4549 0
-4157 4550 -4495 4500 0
-4157 4550 4495 0
4157 -4550 -4495 4505 0
4157 -4550 4495 0
-4159 4551 0
4159 -4551 -4495 4509 0
4159 -4551 4495 0
-4362 4552 -4495 -4502 4509 0
-4362 4552 -4495 4502 0
-4362 4552 4495 0
4362 -4552 -4495 -4502 4516 0
4362 -4552 -4495 4502 0
4362 -4552 4495 0
-4363 4553 -4495 4517 0
-4363 4553 4495 0
4363 -4553 -4495 4501 0
4363 -4553 4495 0
-4364 4554 -4495 -4503 4507 0
-4364 4554 -4495 4503 0
-4364 4554 4495 0
4364 -4554 -4495 -4503 4514 0
4364 -4554 -4495 4503 0
4364 -4554 4495 0
-4365 4555 -4495 -4501 4506 0
-4365 4555 -4495 4501 0
-4365 4555 4495 0
4365 -4555 -4495 -4501 4513 0
4365 -4555 -4495 4501 0
4365 -4555 4495 0
-4366 4556 -4495 -4504 4507 0
-4366 4556 -4495 4504 0
-4366 4556 4495 0
4366 -4556 -4495 -4504 4514 0
4366 -4556 -4495 4504 0
4366 -4556 4495 0
-4165 4557 -4495 4503 0
-4165 4557 4495 0
4165 -4557 0
-4367 4558 -4495 -4503 4509 0
-4367 4558 -4495 4503 0
-4367 4558 4495 0
4367 -4558 -4495 -4503 4516 0
4367 -4558 -4495 4503 0
4367 -4558 4495 0
-4369 4559 -4495 -4504 4509 0
-4369 4559 -4495 4504 0
-4369 4559 4495 0
4369 -4559 -4495 -4504 4516 0
4369 -4559 -4495 4504 0
4369 -4559 4495 0
-4370 4560 -4495 -4504 4506 0
-4370 4560 -4495 4504 0
-4370 4560 4495 0
4370 -4560 -4495 -4504 4513 0
4370 -4560 -4495 4504 0
4370 -4560 4495 0
-4371 4561 -4495 -4500 4510 0
-4371 4561 -4495 4500 0
-4371 4561 4495 0
4371 -4561 -4495 -4500 4517 0
4371 -4561 -4495 4500 0
4371 -4561 4495 0
-4373 4562 -4495 4512 0
-4373 4562 4495 0
4373 -4562 -4495 4500 0
4373 -4562 4495 0
-4374 4563 -4495 -4500 4511 0
-4374 4563 -4495 4500 0
-4374 4563 4495 0
4374 -4563 -4495 -4500 4519 0
4374 -4563 -4495 4500 0
4374 -4563 4495 0
-4375 4564 -4495 -4501 4507 0
-4375 4564 -4495 4501 0
-4375 4564 4495 0
4375 -4564 -4495 -4501 4514 0
4375 -4564 -4495 4501 0
4375 -4564 4495 0
-4376 4565 -4495 -4500 4507 0
-4376 4565 -4495 4500 0
-4376 4565 4495 0
4376 -4565 -4495 -4500 4514 0
4376 -4565 -4495 4500 0
4376 -4565 4495 0
-4521 4576 4577 4578 4579 4580 0
-4576 -4577 0
-4576 -4578 0
-4576 -4579 0
-4576 -4580 0
-4577 -4578 0
-4577 -4579 0
-4577 -4580 0
-4578 -4579 0
-4578 -4580 0
-4579 -4580 0
-4521 4581 4582 4583 4584 4585 4586 4587 4588 0
-4581 -4582 0
-4581 -4583 0
-4581 -4584 0
-4581 -4585 0
-4581 -4586 0
-4581 -4587 0
-4581 -4588 0
-4582 -4583 0
-4582 -4584 0
-4582 -4585 0
-4582 -4586 0
-4582 -4587 0
-4582 -4588 0
-4583 -4584 0
-4583 -4585 0
-4583 -4586 0
-4583 -4587 0
-4583 -4588 0
-4584 -4585 0
-4584 -4586 0
-4584 -4587 0
-4584 -4588 0
-4585 -4586 0
-4585 -4587 0
-4585 -4588 0
-4586 -4587 0
-4586 -4588 0
-4587 -4588 0
-4521 4573 0
-4521 4567 0
-4522 4581 4582 4583 4584 4585 4586 4587 4588 0
-4581 -4582 0
-4581 -4583 0
-4581 -4584 0
-4581 -4585 0
-4581 -4586 0
-4581 -4587 0
-4581 -4588 0
-4582 -4583 0
-4582 -4584 0
-4582 -4585 0
-4582 -4586 0
-4582 -4587 0
-4582 -4588 0
-4583 -4584 0
-4583 -4585 0
-4583 -4586 0
-4583 -4587 0
-4583 -4588 0
-4584 -4585 0
-4584 -4586 0
-4584 -4587 0
-4584 -4588 0
-4585 -4586 0
-4585 -4587 0
-4585 -4588 0
-4586 -4587 0
-4586 -4588 0
-4587 -4588 0
-4522 4576 4577 4578 4579 4580 0
-4576 -4577 0
-4576 -4578 0
-4576 -4579 0
-4576 -4580 0
-4577 -4578 0
-4577 -4579 0
-4577 -4580 0
-4578 -4579 0
-4578 -4580 0
-4579 -4580 0
-4522 4570 0
-4522 4571 0
-4523 4532 0
-4523 4353 0
-4520 -4521 0
-4520 -4522 0
-4520 -4523 0
-4521 -4522 0
-4521 -4523 0
-4522 -4523 0
-4500 -4566 4562 0
-4503 -4566 4535 0
-4502 -4566 4529 0
-4501 -4566 4553 0
-4504 -4566 4537 0
-4581 -4567 4361 0
-4586 -4567 4346 0
-4582 -4567 4372 0
-4587 -4567 4349 0
-4585 -4567 4353 0
-4584 -4567 4368 0
-4583 -4567 4360 0
-4588 -4567 4342 0
-4513 4568 -4541 0
-4518 4568 -4535 0
-4519 4568 -4549 0
-4514 4568 -4529 0
-4517 4568 -4553 0
-4515 4568 -4537 0
-4516 4568 -4546 0
-4512 4568 -4562 0
-4503 -4512 -4569 4540 0
-4503 -4517 -4569 4548 0
-4503 -4513 -4569 4527 0
-4501 -4516 -4569 4528 0
-4503 -4519 -4569 4530 0
-4500 -4513 -4569 4531 0
-4502 -4513 -4569 4543 0
-4504 -4516 -4569 4559 0
-4502 -4519 -4569 4533 0
-4503 -4515 -4569 4534 0
-4502 -4516 -4569 4552 0
-4500 -4516 -4569 4544 0
-4504 -4517 -4569 4536 0
-4504 -4513 -4569 4560 0
-4500 -4517 -4569 4561 0
-4503 -4514 -4569 4554 0
-4501 -4513 -4569 4555 0
-4504 -4512 -4569 4538 0
-4504 -4514 -4569 4556 0
-4501 -4519 -4569 4547 0
-4504 -4519 -4569 4539 0
-4503 -4516 -4569 4558 0
-4500 -4519 -4569 4563 0
-4501 -4514 -4569 4564 0
-4500 -4514 -4569 4565 0
-4576 -4570 4361 0
-4579 -4570 4349 0
-4577 -4570 4346 0
-4580 -4570 4368 0
-4578 -4570 4360 0
-4585 -4571 4551 0
-4584 -4571 4525 0
-4586 -4571 4526 0
-4582 -4571 4545 0
-4581 -4571 4550 0
-4583 -4571 4542 0
-4587 -4571 4557 0
-4588 -4571 4532 0
-4509 -4572 4551 0
-4508 -4572 4525 0
-4510 -4572 4526 0
-4506 -4572 4545 0
-4505 -4572 4550 0
-4507 -4572 4542 0
-4511 -4572 4532 0
-4576 -4573 4550 0
-4580 -4573 4525 0
-4577 -4573 4526 0
-4578 -4573 4542 0
-4579 -4573 4557 0
-4500 4574 -4550 0
-4504 4574 -4525 0
-4501 4574 -4526 0
-4502 4574 -4542 0
-4503 4574 -4557 0
-4503 -4505 4575 -4540 0
-4503 -4510 4575 -4548 0
-4503 -4506 4575 -4527 0
-4501 -4509 4575 -4528 0
-4503 -4511 4575 -4530 0
-4500 -4506 4575 -4531 0
-4502 -4506 4575 -4543 0
-4504 -4509 4575 -4559 0
-4502 -4511 4575 -4533 0
-4503 -4508 4575 -4534 0
-4502 -4509 4575 -4552 0
-4500 -4509 4575 -4544 0
-4504 -4510 4575 -4536 0
-4504 -4506 4575 -4560 0
-4500 -4510 4575 -4561 0
-4503 -4507 4575 -4554 0
-4501 -4506 4575 -4555 0
-4504 -4505 4575 -4538 0
-4504 -4507 4575 -4556 0
-4501 -4511 4575 -4547 0
-4504 -4511 4575 -4539 0
-4503 -4509 4575 -4558 0
-4500 -4511 4575 -4563 0
-4501 -4507 4575 -4564 0
-4500 -4507 4575 -4565 0
-4495 4572 0
-4589 4505 -4512 0
-4589 -4505 4512 0
-4589 4506 -4513 0
-4589 -4506 4513 0
-4589 4507 -4514 0
-4589 -4507 4514 0
-4589 4508 -4515 0
-4589 -4508 4515 0
-4589 4509 -4516 0
-4589 -4509 4516 0
-4589 4510 -4517 0
-4589 -4510 4517 0
-4589 4511 -4519 0
-4589 -4511 4519 0
-4505 -4512 4589 0
-4506 -4513 4589 0
-4507 -4514 4589 0
-4508 -4515 4589 0
-4509 -4516 4589 0
-4510 -4517 4589 0
-4511 -4519 4589 0
-4518 -4589 0
-4495 -4575 4589 0
-4590 4512 -4505 0
-4590 -4512 4505 0
-4590 4513 -4506 0
-4590 -4513 4506 0
-4590 4514 -4507 0
-4590 -4514 4507 0
-4590 4515 -4508 0
-4590 -4515 4508 0
-4590 4516 -4509 0
-4590 -4516 4509 0
-4590 4517 -4510 0
-4590 -4517 4510 0
-4590 4519 -4511 0
-4590 -4519 4511 0
-4512 -4505 4590 0
-4513 -4506 4590 0
-4514 -4507 4590 0
-4515 -4508 4590 0
-4516 -4509 4590 0
-4517 -4510 4590 0
-4519 -4511 4590 0
-4518 -4590 0
-4591 4512 -4500 0
-4591 -4512 4500 0
-4591 4517 -4501 0
-4591 -4517 4501 0
-4591 4514 -4502 0
-4591 -4514 4502 0
-4591 4518 -4503 0
-4591 -4518 4503 0
-4591 4515 -4504 0
-4591 -4515 4504 0
-4512 -4500 4591 0
-4517 -4501 4591 0
-4514 -4502 4591 0
-4518 -4503 4591 0
-4515 -4504 4591 0
-4516 -4591 0
-4513 -4591 0
-4519 -4591 0
-4495 -4568 4591 0
-4495 4569 0
-4495 4566 0
-4592 4500 -4505 0
-4592 -4500 4505 0
-4592 4501 -4510 0
-4592 -4501 4510 0
-4592 4502 -4507 0
-4592 -4502 4507 0
-4592 4504 -4508 0
-4592 -4504 4508 0
-4500 -4505 4592 0
-4501 -4510 4592 0
-4502 -4507 4592 0
-4504 -4508 4592 0
-4503 -4592 0
-4509 -4592 0
-4506 -4592 0
-4511 -4592 0
-4495 -4574 4592 0
-4521 -4578 -4584 0
-4521 -4578 -4583 0
-4521 -4578 -4581 0
-4521 -4578 -4587 0
-4521 -4578 -4586 0
-4521 -4577 -4584 0
-4521 -4577 -4581 0
-4521 -4577 -4587 0
-4521 -4577 -4586 0
-4521 -4580 -4584 0
-4521 -4580 -4587 0
-4521 -4579 -4587 0
-4521 -4576 -4584 0
-4521 -4576 -4581 0
-4521 -4576 -4587 0
-4522 -4578 -4584 0
-4522 -4578 -4583 0
-4522 -4578 -4581 0
-4522 -4578 -4587 0
-4522 -4578 -4586 0
-4522 -4577 -4584 0
-4522 -4577 -4581 0
-4522 -4577 -4587 0
-4522 -4577 -4586 0
-4522 -4580 -4584 0
-4522 -4580 -4587 0
-4522 -4579 -4587 0
-4522 -4576 -4584 0
-4522 -4576 -4581 0
-4522 -4576 -4587 0
-4334 4521 4522 4523 0
-4333 4520 0
-4521 4334 0
-4522 4334 0
-4523 4334 0
-4520 4333 0
-4525 151 -4524 0
4525 -151 -4524 0
-4526 152 -4524 0
4526 -152 -4524 0
-4527 154 -4524 0
4527 -154 -4524 0
-4528 155 -4524 0
4528 -155 -4524 0
-4529 385 -4524 0
4529 -385 -4524 0
-4530 156 -4524 0
4530 -156 -4524 0
-4531 158 -4524 0
4531 -158 -4524 0
-4532 159 -4524 0
4532 -159 -4524 0
-4533 160 -4524 0
4533 -160 -4524 0
-4342 602 -4524 0
4342 -602 -4524 0
-4534 10 -4524 0
4534 -10 -4524 0
-4535 162 -4524 0
4535 -162 -4524 0
-4536 163 -4524 0
4536 -163 -4524 0
-4346 270 -4524 0
4346 -270 -4524 0
-4537 386 -4524 0
4537 -386 -4524 0
-4538 11 -4524 0
4538 -11 -4524 0
-4349 271 -4524 0
4349 -271 -4524 0
-4539 167 -4524 0
4539 -167 -4524 0
-4540 170 -4524 0
4540 -170 -4524 0
-4541 171 -4524 0
4541 -171 -4524 0
-4542 172 -4524 0
4542 -172 -4524 0
-4353 273 -4524 0
4353 -273 -4524 0
-4543 12 -4524 0
4543 -12 -4524 0
-4544 174 -4524 0
4544 -174 -4524 0
-4545 274 -4524 0
4545 -274 -4524 0
-4546 387 -4524 0
4546 -387 -4524 0
-4547 176 -4524 0
4547 -176 -4524 0
-4548 153 -4524 0
4548 -153 -4524 0
-4549 388 -4524 0
4549 -388 -4524 0
-4550 157 -4524 0
4550 -157 -4524 0
-4360 267 -4524 0
4360 -267 -4524 0
-4551 268 -4524 0
4551 -268 -4524 0
-4361 269 -4524 0
4361 -269 -4524 0
-4552 161 -4524 0
4552 -161 -4524 0
-4553 389 -4524 0
4553 -389 -4524 0
-4554 164 -4524 0
4554 -164 -4524 0
-4555 165 -4524 0
4555 -165 -4524 0
-4556 166 -4524 0
4556 -166 -4524 0
-4557 168 -4524 0
4557 -168 -4524 0
-4558 169 -4524 0
4558 -169 -4524 0
-4368 272 -4524 0
4368 -272 -4524 0
-4559 173 -4524 0
4559 -173 -4524 0
-4560 175 -4524 0
4560 -175 -4524 0
-4561 13 -4524 0
4561 -13 -4524 0
-4372 603 -4524 0
4372 -603 -4524 0
-4562 390 -4524 0
4562 -390 -4524 0
-4563 177 -4524 0
4563 -177 -4524 0
-4564 14 -4524 0
4564 -14 -4524 0
-4565 178 -4524 0
4565 -178 -4524 0
-4389 4593 0
-4593 4389 0
a 4524 0
